webassembly/ejemplos_dzn/15/folder15_json_14.dzn
TERM = { '.', 's(5)', 's(2)', 's(4)', 'in_1', 'local_0', 'local_1', 'in_6', 'in_2', 'in_4', 'in_3', 'in_9', 'in_8', 's(1)', 's(0)', 'in_7', 'in_5', 's(3)', 'in_0'};
null = '.';
s = 15;
n = 15;
ndeps = 7;
max_registers_sz = 4;
NR = 1;
registers = [|'local_0', 'in_8'|];
dependencies = [|'i32.store8_1', 'i32.store16_2', |'i32.store16_2', 'i32.store_7', |'i32.store_7', 'i32.store8_8', |'i32.store8_8', 'i32.load8_u_11', |'i32.store8_8', 'i32.load8_u_12', |'i32.load8_u_11', 'i32.store_14', |'i32.load8_u_12', 'i32.store_14'|];
GET_ENUM = { GET1, GET2, GET3, GET4, GET5};
SET_ENUM = { SET1, SET2, SET3, SET4, SET5};
TEE_ENUM = { TEE1, TEE2, TEE3, TEE4, TEE5};
N = 12;
OP = { 'i32.store8_1', 'i32.store16_2', 'i32.const_0', 'i32.add_0', 'i32.sub_0', 'i32.store_7', 'i32.store8_8', 'i32.load8_u_11', 'i32.load8_u_12', 'i32.add_1', 'i32.store_14', 'local.get_0' };
in_ops = [2, 2, 0, 2, 2, 2, 2, 1, 1, 2, 2, 0 ];
out_ops = [0, 0, 1, 1, 1, 0, 0, 1, 1, 1, 0, 1 ];
in1 = ['in_0', 'in_2', '.', 'in_0', 's(0)', 's(5)', 'in_6', 'local_1', 's(2)', 's(3)', 's(4)', '.' ];
in2 = ['in_1', 'in_3', '.', 'in_4', 'in_5', 's(1)', 'in_7', '.', '.', 'in_8', 'in_9', '.' ];
in3 = ['.', '.', '.', '.', '.', '.', '.', '.', '.', '.', '.', '.' ];
out1 = ['.', '.', 's(5)', 's(0)', 's(1)', '.', '.', 's(2)', 's(3)', 's(4)', '.', 'local_1' ];
out2 = ['.', '.', '.', '.', '.', '.', '.', '.', '.', '.', '.', '.' ];
out3 = ['.', '.', '.', '.', '.', '.', '.', '.', '.', '.', '.', '.' ];
comm = [false, false, false, true, false, false, false, false, false, true, false, false ];
gas = [1, 1, 1, 1, 1, 1, 1, 1, 1, 1, 1, 1 ];
sz = [1, 1, 1, 1, 1, 1, 1, 1, 1, 1, 1, 1 ];
stor = [true, true, false, false, false, true, true, false, false, false, true, false ];
lb = [ 1, 1, 1, 1, 1, 1, 1, 1, 1, 1, 1, 1 ];
ub = [ 15, 15, 15, 15, 15, 15, 15, 15, 15, 15, 15, 15 ];
startstack = [ 'in_0', 'in_1', 'in_2', 'in_3', 'in_4', 'in_5', 'in_6', 'in_7', 'in_8', 'in_9', null, null, null, null, null ];
endstack = [ null, null, null, null, null, null, null, null, null, null, null, null, null, null, null ];
