webassembly/ejemplos_results/15/folder15_json_14.txt
value = 15;
fgas = [1, 1, 1, 1, 2, 1, 1, 1, 1, 1, 1, 1, 1, 1, 1];
fsize = [1, 1, 1, 1, 1, 1, 1, 1, 1, 1, 1, 1, 1, 1, 1];
states = 
[|    in_0,   in_1, in_2, in_3, in_4, in_5, in_6, in_7, in_8, in_9, '.', '.', '.', '.', '.'
 |    in_0,   in_1, in_2, in_3, in_4, in_5, in_6, in_7, in_8, in_9, '.', '.', '.', '.', '.'
 |    in_6,   in_7, in_4, in_5, in_6, in_7, in_8, in_9,  '.',  '.', '.', '.', '.', '.', '.'
 | local_1,   in_6, in_7, in_4, in_5, in_6, in_7, in_8, in_9,  '.', '.', '.', '.', '.', '.'
 |  's(2)',   in_6, in_7, in_4, in_5, in_6, in_7, in_8, in_9,  '.', '.', '.', '.', '.', '.'
 |    in_6,   in_7, in_4, in_5, in_6, in_7, in_8, in_9,  '.',  '.', '.', '.', '.', '.', '.'
 |    in_4,   in_0, in_6, in_7, in_8, in_9,  '.',  '.',  '.',  '.', '.', '.', '.', '.', '.'
 |  's(0)',   in_5, in_7, in_8, in_9,  '.',  '.',  '.',  '.',  '.', '.', '.', '.', '.', '.'
 |  's(1)',   in_0, in_8, in_9,  '.',  '.',  '.',  '.',  '.',  '.', '.', '.', '.', '.', '.'
 |  's(5)', 's(1)', in_0, in_8, in_9,  '.',  '.',  '.',  '.',  '.', '.', '.', '.', '.', '.'
 |  's(2)',   in_8, in_9,  '.',  '.',  '.',  '.',  '.',  '.',  '.', '.', '.', '.', '.', '.'
 |  's(3)',   in_8, in_9,  '.',  '.',  '.',  '.',  '.',  '.',  '.', '.', '.', '.', '.', '.'
 |  's(4)',   in_9,  '.',  '.',  '.',  '.',  '.',  '.',  '.',  '.', '.', '.', '.', '.', '.'
 |    in_2,   in_3,  '.',  '.',  '.',  '.',  '.',  '.',  '.',  '.', '.', '.', '.', '.', '.'
 |    in_8,    '.',  '.',  '.',  '.',  '.',  '.',  '.',  '.',  '.', '.', '.', '.', '.', '.'
 |     '.',    '.',  '.',  '.',  '.',  '.',  '.',  '.',  '.',  '.', '.', '.', '.', '.', '.'
 |];
register_states = 
[| local_0, '.', '.', '.', '.'
 |    in_0, '.', '.', '.', '.'
 |    in_0, '.', '.', '.', '.'
 |    in_0, '.', '.', '.', '.'
 |    in_0, '.', '.', '.', '.'
 |    in_0, '.', '.', '.', '.'
 |    in_0, '.', '.', '.', '.'
 |    in_0, '.', '.', '.', '.'
 |    in_0, '.', '.', '.', '.'
 |    in_0, '.', '.', '.', '.'
 |    in_0, '.', '.', '.', '.'
 |    in_0, '.', '.', '.', '.'
 |    in_0, '.', '.', '.', '.'
 |    in_0, '.', '.', '.', '.'
 |    in_0, '.', '.', '.', '.'
 |    in_8, '.', '.', '.', '.'
 |];
program = [TEE(TEE1), O('i32.store8_1'), O('local.get_0'), O('i32.load8_u_11'), POP, O('i32.store8_8'), O('i32.add_0'), O('i32.sub_0'), O('i32.const_0'), O('i32.store_7'), O('i32.load8_u_12'), O('i32.add_1'), O('i32.store_14'), O('i32.store16_2'), S(SET1)];
% time elapsed: 0.80 s
----------
value = 14;
fgas = [1, 1, 1, 1, 2, 1, 1, 1, 1, 1, 1, 1, 1, 1, 0];
fsize = [1, 1, 1, 1, 1, 1, 1, 1, 1, 1, 1, 1, 1, 1, 1];
states = 
[|    in_0,   in_1, in_2, in_3, in_4, in_5, in_6, in_7, in_8, in_9, '.', '.', '.', '.', '.'
 |    in_2,   in_3, in_4, in_5, in_6, in_7, in_8, in_9,  '.',  '.', '.', '.', '.', '.', '.'
 |    in_6,   in_7, in_6, in_7, in_8, in_9,  '.',  '.',  '.',  '.', '.', '.', '.', '.', '.'
 | local_1,   in_6, in_7, in_6, in_7, in_8, in_9,  '.',  '.',  '.', '.', '.', '.', '.', '.'
 |  's(2)',   in_6, in_7, in_6, in_7, in_8, in_9,  '.',  '.',  '.', '.', '.', '.', '.', '.'
 |    in_6,   in_7, in_6, in_7, in_8, in_9,  '.',  '.',  '.',  '.', '.', '.', '.', '.', '.'
 |    in_4,   in_0, in_8, in_9,  '.',  '.',  '.',  '.',  '.',  '.', '.', '.', '.', '.', '.'
 |  's(0)',   in_5, in_9,  '.',  '.',  '.',  '.',  '.',  '.',  '.', '.', '.', '.', '.', '.'
 |  's(1)',   in_0,  '.',  '.',  '.',  '.',  '.',  '.',  '.',  '.', '.', '.', '.', '.', '.'
 |  's(5)', 's(1)', in_0,  '.',  '.',  '.',  '.',  '.',  '.',  '.', '.', '.', '.', '.', '.'
 |  's(2)',   in_8,  '.',  '.',  '.',  '.',  '.',  '.',  '.',  '.', '.', '.', '.', '.', '.'
 |  's(3)',   in_8,  '.',  '.',  '.',  '.',  '.',  '.',  '.',  '.', '.', '.', '.', '.', '.'
 |  's(4)',   in_9,  '.',  '.',  '.',  '.',  '.',  '.',  '.',  '.', '.', '.', '.', '.', '.'
 |    in_8,    '.',  '.',  '.',  '.',  '.',  '.',  '.',  '.',  '.', '.', '.', '.', '.', '.'
 |     '.',    '.',  '.',  '.',  '.',  '.',  '.',  '.',  '.',  '.', '.', '.', '.', '.', '.'
 |     '.',    '.',  '.',  '.',  '.',  '.',  '.',  '.',  '.',  '.', '.', '.', '.', '.', '.'
 |];
register_states = 
[| local_0, '.', '.', '.', '.'
 | local_0, '.', '.', '.', '.'
 | local_0, '.', '.', '.', '.'
 | local_0, '.', '.', '.', '.'
 | local_0, '.', '.', '.', '.'
 | local_0, '.', '.', '.', '.'
 | local_0, '.', '.', '.', '.'
 | local_0, '.', '.', '.', '.'
 | local_0, '.', '.', '.', '.'
 | local_0, '.', '.', '.', '.'
 | local_0, '.', '.', '.', '.'
 | local_0, '.', '.', '.', '.'
 | local_0, '.', '.', '.', '.'
 | local_0, '.', '.', '.', '.'
 |    in_8, '.', '.', '.', '.'
 |    in_8, '.', '.', '.', '.'
 |];
program = [O('i32.store8_1'), O('i32.store16_2'), O('local.get_0'), O('i32.load8_u_11'), POP, O('i32.store8_8'), O('i32.add_0'), O('i32.sub_0'), O('i32.const_0'), O('i32.store_7'), O('i32.load8_u_12'), O('i32.add_1'), O('i32.store_14'), S(SET1), NOP];
% time elapsed: 0.84 s
----------
=====UNKNOWN=====
% time elapsed: 0.99 s
